(set-option :produce-models true)
(set-logic QF_LIA)
(declare-fun W_0_1 () Int)
(declare-fun P_0_1 () Int)
(declare-fun W_0_2 () Int)
(declare-fun P_0_2 () Int)
(declare-fun W_0_3 () Int)
(declare-fun P_0_3 () Int)
(declare-fun W_0_4 () Int)
(declare-fun P_0_4 () Int)
(declare-fun W_0_5 () Int)
(declare-fun P_0_5 () Int)
(declare-fun W_1_2 () Int)
(declare-fun P_1_2 () Int)
(declare-fun W_1_3 () Int)
(declare-fun P_1_3 () Int)
(declare-fun W_1_4 () Int)
(declare-fun P_1_4 () Int)
(declare-fun W_1_5 () Int)
(declare-fun P_1_5 () Int)
(declare-fun W_2_3 () Int)
(declare-fun P_2_3 () Int)
(declare-fun W_2_4 () Int)
(declare-fun P_2_4 () Int)
(declare-fun W_2_5 () Int)
(declare-fun P_2_5 () Int)
(declare-fun W_3_4 () Int)
(declare-fun P_3_4 () Int)
(declare-fun W_3_5 () Int)
(declare-fun P_3_5 () Int)
(declare-fun W_4_5 () Int)
(declare-fun P_4_5 () Int)
(assert (and (>= W_0_1 0) (< W_0_1 5)))
(assert (and (>= P_0_1 0) (< P_0_1 3)))
(assert (and (>= W_0_2 0) (< W_0_2 5)))
(assert (and (>= P_0_2 0) (< P_0_2 3)))
(assert (and (>= W_0_3 0) (< W_0_3 5)))
(assert (and (>= P_0_3 0) (< P_0_3 3)))
(assert (and (>= W_0_4 0) (< W_0_4 5)))
(assert (and (>= P_0_4 0) (< P_0_4 3)))
(assert (and (>= W_0_5 0) (< W_0_5 5)))
(assert (and (>= P_0_5 0) (< P_0_5 3)))
(assert (and (>= W_1_2 0) (< W_1_2 5)))
(assert (and (>= P_1_2 0) (< P_1_2 3)))
(assert (and (>= W_1_3 0) (< W_1_3 5)))
(assert (and (>= P_1_3 0) (< P_1_3 3)))
(assert (and (>= W_1_4 0) (< W_1_4 5)))
(assert (and (>= P_1_4 0) (< P_1_4 3)))
(assert (and (>= W_1_5 0) (< W_1_5 5)))
(assert (and (>= P_1_5 0) (< P_1_5 3)))
(assert (and (>= W_2_3 0) (< W_2_3 5)))
(assert (and (>= P_2_3 0) (< P_2_3 3)))
(assert (and (>= W_2_4 0) (< W_2_4 5)))
(assert (and (>= P_2_4 0) (< P_2_4 3)))
(assert (and (>= W_2_5 0) (< W_2_5 5)))
(assert (and (>= P_2_5 0) (< P_2_5 3)))
(assert (and (>= W_3_4 0) (< W_3_4 5)))
(assert (and (>= P_3_4 0) (< P_3_4 3)))
(assert (and (>= W_3_5 0) (< W_3_5 5)))
(assert (and (>= P_3_5 0) (< P_3_5 3)))
(assert (and (>= W_4_5 0) (< W_4_5 5)))
(assert (and (>= P_4_5 0) (< P_4_5 3)))
(assert (= (+ (ite (= W_0_1 0) 1 0) (ite (= W_0_2 0) 1 0) (ite (= W_0_3 0) 1 0) (ite (= W_0_4 0) 1 0) (ite (= W_0_5 0) 1 0)) 1))
(assert (= (+ (ite (= W_0_1 1) 1 0) (ite (= W_0_2 1) 1 0) (ite (= W_0_3 1) 1 0) (ite (= W_0_4 1) 1 0) (ite (= W_0_5 1) 1 0)) 1))
(assert (= (+ (ite (= W_0_1 2) 1 0) (ite (= W_0_2 2) 1 0) (ite (= W_0_3 2) 1 0) (ite (= W_0_4 2) 1 0) (ite (= W_0_5 2) 1 0)) 1))
(assert (= (+ (ite (= W_0_1 3) 1 0) (ite (= W_0_2 3) 1 0) (ite (= W_0_3 3) 1 0) (ite (= W_0_4 3) 1 0) (ite (= W_0_5 3) 1 0)) 1))
(assert (= (+ (ite (= W_0_1 4) 1 0) (ite (= W_0_2 4) 1 0) (ite (= W_0_3 4) 1 0) (ite (= W_0_4 4) 1 0) (ite (= W_0_5 4) 1 0)) 1))
(assert (= (+ (ite (= W_0_1 0) 1 0) (ite (= W_1_2 0) 1 0) (ite (= W_1_3 0) 1 0) (ite (= W_1_4 0) 1 0) (ite (= W_1_5 0) 1 0)) 1))
(assert (= (+ (ite (= W_0_1 1) 1 0) (ite (= W_1_2 1) 1 0) (ite (= W_1_3 1) 1 0) (ite (= W_1_4 1) 1 0) (ite (= W_1_5 1) 1 0)) 1))
(assert (= (+ (ite (= W_0_1 2) 1 0) (ite (= W_1_2 2) 1 0) (ite (= W_1_3 2) 1 0) (ite (= W_1_4 2) 1 0) (ite (= W_1_5 2) 1 0)) 1))
(assert (= (+ (ite (= W_0_1 3) 1 0) (ite (= W_1_2 3) 1 0) (ite (= W_1_3 3) 1 0) (ite (= W_1_4 3) 1 0) (ite (= W_1_5 3) 1 0)) 1))
(assert (= (+ (ite (= W_0_1 4) 1 0) (ite (= W_1_2 4) 1 0) (ite (= W_1_3 4) 1 0) (ite (= W_1_4 4) 1 0) (ite (= W_1_5 4) 1 0)) 1))
(assert (= (+ (ite (= W_0_2 0) 1 0) (ite (= W_1_2 0) 1 0) (ite (= W_2_3 0) 1 0) (ite (= W_2_4 0) 1 0) (ite (= W_2_5 0) 1 0)) 1))
(assert (= (+ (ite (= W_0_2 1) 1 0) (ite (= W_1_2 1) 1 0) (ite (= W_2_3 1) 1 0) (ite (= W_2_4 1) 1 0) (ite (= W_2_5 1) 1 0)) 1))
(assert (= (+ (ite (= W_0_2 2) 1 0) (ite (= W_1_2 2) 1 0) (ite (= W_2_3 2) 1 0) (ite (= W_2_4 2) 1 0) (ite (= W_2_5 2) 1 0)) 1))
(assert (= (+ (ite (= W_0_2 3) 1 0) (ite (= W_1_2 3) 1 0) (ite (= W_2_3 3) 1 0) (ite (= W_2_4 3) 1 0) (ite (= W_2_5 3) 1 0)) 1))
(assert (= (+ (ite (= W_0_2 4) 1 0) (ite (= W_1_2 4) 1 0) (ite (= W_2_3 4) 1 0) (ite (= W_2_4 4) 1 0) (ite (= W_2_5 4) 1 0)) 1))
(assert (= (+ (ite (= W_0_3 0) 1 0) (ite (= W_1_3 0) 1 0) (ite (= W_2_3 0) 1 0) (ite (= W_3_4 0) 1 0) (ite (= W_3_5 0) 1 0)) 1))
(assert (= (+ (ite (= W_0_3 1) 1 0) (ite (= W_1_3 1) 1 0) (ite (= W_2_3 1) 1 0) (ite (= W_3_4 1) 1 0) (ite (= W_3_5 1) 1 0)) 1))
(assert (= (+ (ite (= W_0_3 2) 1 0) (ite (= W_1_3 2) 1 0) (ite (= W_2_3 2) 1 0) (ite (= W_3_4 2) 1 0) (ite (= W_3_5 2) 1 0)) 1))
(assert (= (+ (ite (= W_0_3 3) 1 0) (ite (= W_1_3 3) 1 0) (ite (= W_2_3 3) 1 0) (ite (= W_3_4 3) 1 0) (ite (= W_3_5 3) 1 0)) 1))
(assert (= (+ (ite (= W_0_3 4) 1 0) (ite (= W_1_3 4) 1 0) (ite (= W_2_3 4) 1 0) (ite (= W_3_4 4) 1 0) (ite (= W_3_5 4) 1 0)) 1))
(assert (= (+ (ite (= W_0_4 0) 1 0) (ite (= W_1_4 0) 1 0) (ite (= W_2_4 0) 1 0) (ite (= W_3_4 0) 1 0) (ite (= W_4_5 0) 1 0)) 1))
(assert (= (+ (ite (= W_0_4 1) 1 0) (ite (= W_1_4 1) 1 0) (ite (= W_2_4 1) 1 0) (ite (= W_3_4 1) 1 0) (ite (= W_4_5 1) 1 0)) 1))
(assert (= (+ (ite (= W_0_4 2) 1 0) (ite (= W_1_4 2) 1 0) (ite (= W_2_4 2) 1 0) (ite (= W_3_4 2) 1 0) (ite (= W_4_5 2) 1 0)) 1))
(assert (= (+ (ite (= W_0_4 3) 1 0) (ite (= W_1_4 3) 1 0) (ite (= W_2_4 3) 1 0) (ite (= W_3_4 3) 1 0) (ite (= W_4_5 3) 1 0)) 1))
(assert (= (+ (ite (= W_0_4 4) 1 0) (ite (= W_1_4 4) 1 0) (ite (= W_2_4 4) 1 0) (ite (= W_3_4 4) 1 0) (ite (= W_4_5 4) 1 0)) 1))
(assert (= (+ (ite (= W_0_5 0) 1 0) (ite (= W_1_5 0) 1 0) (ite (= W_2_5 0) 1 0) (ite (= W_3_5 0) 1 0) (ite (= W_4_5 0) 1 0)) 1))
(assert (= (+ (ite (= W_0_5 1) 1 0) (ite (= W_1_5 1) 1 0) (ite (= W_2_5 1) 1 0) (ite (= W_3_5 1) 1 0) (ite (= W_4_5 1) 1 0)) 1))
(assert (= (+ (ite (= W_0_5 2) 1 0) (ite (= W_1_5 2) 1 0) (ite (= W_2_5 2) 1 0) (ite (= W_3_5 2) 1 0) (ite (= W_4_5 2) 1 0)) 1))
(assert (= (+ (ite (= W_0_5 3) 1 0) (ite (= W_1_5 3) 1 0) (ite (= W_2_5 3) 1 0) (ite (= W_3_5 3) 1 0) (ite (= W_4_5 3) 1 0)) 1))
(assert (= (+ (ite (= W_0_5 4) 1 0) (ite (= W_1_5 4) 1 0) (ite (= W_2_5 4) 1 0) (ite (= W_3_5 4) 1 0) (ite (= W_4_5 4) 1 0)) 1))
(assert (= (+ (ite (= W_0_1 0) 1 0) (ite (= W_0_2 0) 1 0) (ite (= W_0_3 0) 1 0) (ite (= W_0_4 0) 1 0) (ite (= W_0_5 0) 1 0) (ite (= W_1_2 0) 1 0) (ite (= W_1_3 0) 1 0) (ite (= W_1_4 0) 1 0) (ite (= W_1_5 0) 1 0) (ite (= W_2_3 0) 1 0) (ite (= W_2_4 0) 1 0) (ite (= W_2_5 0) 1 0) (ite (= W_3_4 0) 1 0) (ite (= W_3_5 0) 1 0) (ite (= W_4_5 0) 1 0)) 3))
(assert (= (+ (ite (= W_0_1 1) 1 0) (ite (= W_0_2 1) 1 0) (ite (= W_0_3 1) 1 0) (ite (= W_0_4 1) 1 0) (ite (= W_0_5 1) 1 0) (ite (= W_1_2 1) 1 0) (ite (= W_1_3 1) 1 0) (ite (= W_1_4 1) 1 0) (ite (= W_1_5 1) 1 0) (ite (= W_2_3 1) 1 0) (ite (= W_2_4 1) 1 0) (ite (= W_2_5 1) 1 0) (ite (= W_3_4 1) 1 0) (ite (= W_3_5 1) 1 0) (ite (= W_4_5 1) 1 0)) 3))
(assert (= (+ (ite (= W_0_1 2) 1 0) (ite (= W_0_2 2) 1 0) (ite (= W_0_3 2) 1 0) (ite (= W_0_4 2) 1 0) (ite (= W_0_5 2) 1 0) (ite (= W_1_2 2) 1 0) (ite (= W_1_3 2) 1 0) (ite (= W_1_4 2) 1 0) (ite (= W_1_5 2) 1 0) (ite (= W_2_3 2) 1 0) (ite (= W_2_4 2) 1 0) (ite (= W_2_5 2) 1 0) (ite (= W_3_4 2) 1 0) (ite (= W_3_5 2) 1 0) (ite (= W_4_5 2) 1 0)) 3))
(assert (= (+ (ite (= W_0_1 3) 1 0) (ite (= W_0_2 3) 1 0) (ite (= W_0_3 3) 1 0) (ite (= W_0_4 3) 1 0) (ite (= W_0_5 3) 1 0) (ite (= W_1_2 3) 1 0) (ite (= W_1_3 3) 1 0) (ite (= W_1_4 3) 1 0) (ite (= W_1_5 3) 1 0) (ite (= W_2_3 3) 1 0) (ite (= W_2_4 3) 1 0) (ite (= W_2_5 3) 1 0) (ite (= W_3_4 3) 1 0) (ite (= W_3_5 3) 1 0) (ite (= W_4_5 3) 1 0)) 3))
(assert (= (+ (ite (= W_0_1 4) 1 0) (ite (= W_0_2 4) 1 0) (ite (= W_0_3 4) 1 0) (ite (= W_0_4 4) 1 0) (ite (= W_0_5 4) 1 0) (ite (= W_1_2 4) 1 0) (ite (= W_1_3 4) 1 0) (ite (= W_1_4 4) 1 0) (ite (= W_1_5 4) 1 0) (ite (= W_2_3 4) 1 0) (ite (= W_2_4 4) 1 0) (ite (= W_2_5 4) 1 0) (ite (= W_3_4 4) 1 0) (ite (= W_3_5 4) 1 0) (ite (= W_4_5 4) 1 0)) 3))
(assert (= (+ (ite (and (= W_0_1 0) (= P_0_1 0)) 1 0) (ite (and (= W_0_2 0) (= P_0_2 0)) 1 0) (ite (and (= W_0_3 0) (= P_0_3 0)) 1 0) (ite (and (= W_0_4 0) (= P_0_4 0)) 1 0) (ite (and (= W_0_5 0) (= P_0_5 0)) 1 0) (ite (and (= W_1_2 0) (= P_1_2 0)) 1 0) (ite (and (= W_1_3 0) (= P_1_3 0)) 1 0) (ite (and (= W_1_4 0) (= P_1_4 0)) 1 0) (ite (and (= W_1_5 0) (= P_1_5 0)) 1 0) (ite (and (= W_2_3 0) (= P_2_3 0)) 1 0) (ite (and (= W_2_4 0) (= P_2_4 0)) 1 0) (ite (and (= W_2_5 0) (= P_2_5 0)) 1 0) (ite (and (= W_3_4 0) (= P_3_4 0)) 1 0) (ite (and (= W_3_5 0) (= P_3_5 0)) 1 0) (ite (and (= W_4_5 0) (= P_4_5 0)) 1 0)) 1))
(assert (= (+ (ite (and (= W_0_1 0) (= P_0_1 1)) 1 0) (ite (and (= W_0_2 0) (= P_0_2 1)) 1 0) (ite (and (= W_0_3 0) (= P_0_3 1)) 1 0) (ite (and (= W_0_4 0) (= P_0_4 1)) 1 0) (ite (and (= W_0_5 0) (= P_0_5 1)) 1 0) (ite (and (= W_1_2 0) (= P_1_2 1)) 1 0) (ite (and (= W_1_3 0) (= P_1_3 1)) 1 0) (ite (and (= W_1_4 0) (= P_1_4 1)) 1 0) (ite (and (= W_1_5 0) (= P_1_5 1)) 1 0) (ite (and (= W_2_3 0) (= P_2_3 1)) 1 0) (ite (and (= W_2_4 0) (= P_2_4 1)) 1 0) (ite (and (= W_2_5 0) (= P_2_5 1)) 1 0) (ite (and (= W_3_4 0) (= P_3_4 1)) 1 0) (ite (and (= W_3_5 0) (= P_3_5 1)) 1 0) (ite (and (= W_4_5 0) (= P_4_5 1)) 1 0)) 1))
(assert (= (+ (ite (and (= W_0_1 0) (= P_0_1 2)) 1 0) (ite (and (= W_0_2 0) (= P_0_2 2)) 1 0) (ite (and (= W_0_3 0) (= P_0_3 2)) 1 0) (ite (and (= W_0_4 0) (= P_0_4 2)) 1 0) (ite (and (= W_0_5 0) (= P_0_5 2)) 1 0) (ite (and (= W_1_2 0) (= P_1_2 2)) 1 0) (ite (and (= W_1_3 0) (= P_1_3 2)) 1 0) (ite (and (= W_1_4 0) (= P_1_4 2)) 1 0) (ite (and (= W_1_5 0) (= P_1_5 2)) 1 0) (ite (and (= W_2_3 0) (= P_2_3 2)) 1 0) (ite (and (= W_2_4 0) (= P_2_4 2)) 1 0) (ite (and (= W_2_5 0) (= P_2_5 2)) 1 0) (ite (and (= W_3_4 0) (= P_3_4 2)) 1 0) (ite (and (= W_3_5 0) (= P_3_5 2)) 1 0) (ite (and (= W_4_5 0) (= P_4_5 2)) 1 0)) 1))
(assert (= (+ (ite (and (= W_0_1 1) (= P_0_1 0)) 1 0) (ite (and (= W_0_2 1) (= P_0_2 0)) 1 0) (ite (and (= W_0_3 1) (= P_0_3 0)) 1 0) (ite (and (= W_0_4 1) (= P_0_4 0)) 1 0) (ite (and (= W_0_5 1) (= P_0_5 0)) 1 0) (ite (and (= W_1_2 1) (= P_1_2 0)) 1 0) (ite (and (= W_1_3 1) (= P_1_3 0)) 1 0) (ite (and (= W_1_4 1) (= P_1_4 0)) 1 0) (ite (and (= W_1_5 1) (= P_1_5 0)) 1 0) (ite (and (= W_2_3 1) (= P_2_3 0)) 1 0) (ite (and (= W_2_4 1) (= P_2_4 0)) 1 0) (ite (and (= W_2_5 1) (= P_2_5 0)) 1 0) (ite (and (= W_3_4 1) (= P_3_4 0)) 1 0) (ite (and (= W_3_5 1) (= P_3_5 0)) 1 0) (ite (and (= W_4_5 1) (= P_4_5 0)) 1 0)) 1))
(assert (= (+ (ite (and (= W_0_1 1) (= P_0_1 1)) 1 0) (ite (and (= W_0_2 1) (= P_0_2 1)) 1 0) (ite (and (= W_0_3 1) (= P_0_3 1)) 1 0) (ite (and (= W_0_4 1) (= P_0_4 1)) 1 0) (ite (and (= W_0_5 1) (= P_0_5 1)) 1 0) (ite (and (= W_1_2 1) (= P_1_2 1)) 1 0) (ite (and (= W_1_3 1) (= P_1_3 1)) 1 0) (ite (and (= W_1_4 1) (= P_1_4 1)) 1 0) (ite (and (= W_1_5 1) (= P_1_5 1)) 1 0) (ite (and (= W_2_3 1) (= P_2_3 1)) 1 0) (ite (and (= W_2_4 1) (= P_2_4 1)) 1 0) (ite (and (= W_2_5 1) (= P_2_5 1)) 1 0) (ite (and (= W_3_4 1) (= P_3_4 1)) 1 0) (ite (and (= W_3_5 1) (= P_3_5 1)) 1 0) (ite (and (= W_4_5 1) (= P_4_5 1)) 1 0)) 1))
(assert (= (+ (ite (and (= W_0_1 1) (= P_0_1 2)) 1 0) (ite (and (= W_0_2 1) (= P_0_2 2)) 1 0) (ite (and (= W_0_3 1) (= P_0_3 2)) 1 0) (ite (and (= W_0_4 1) (= P_0_4 2)) 1 0) (ite (and (= W_0_5 1) (= P_0_5 2)) 1 0) (ite (and (= W_1_2 1) (= P_1_2 2)) 1 0) (ite (and (= W_1_3 1) (= P_1_3 2)) 1 0) (ite (and (= W_1_4 1) (= P_1_4 2)) 1 0) (ite (and (= W_1_5 1) (= P_1_5 2)) 1 0) (ite (and (= W_2_3 1) (= P_2_3 2)) 1 0) (ite (and (= W_2_4 1) (= P_2_4 2)) 1 0) (ite (and (= W_2_5 1) (= P_2_5 2)) 1 0) (ite (and (= W_3_4 1) (= P_3_4 2)) 1 0) (ite (and (= W_3_5 1) (= P_3_5 2)) 1 0) (ite (and (= W_4_5 1) (= P_4_5 2)) 1 0)) 1))
(assert (= (+ (ite (and (= W_0_1 2) (= P_0_1 0)) 1 0) (ite (and (= W_0_2 2) (= P_0_2 0)) 1 0) (ite (and (= W_0_3 2) (= P_0_3 0)) 1 0) (ite (and (= W_0_4 2) (= P_0_4 0)) 1 0) (ite (and (= W_0_5 2) (= P_0_5 0)) 1 0) (ite (and (= W_1_2 2) (= P_1_2 0)) 1 0) (ite (and (= W_1_3 2) (= P_1_3 0)) 1 0) (ite (and (= W_1_4 2) (= P_1_4 0)) 1 0) (ite (and (= W_1_5 2) (= P_1_5 0)) 1 0) (ite (and (= W_2_3 2) (= P_2_3 0)) 1 0) (ite (and (= W_2_4 2) (= P_2_4 0)) 1 0) (ite (and (= W_2_5 2) (= P_2_5 0)) 1 0) (ite (and (= W_3_4 2) (= P_3_4 0)) 1 0) (ite (and (= W_3_5 2) (= P_3_5 0)) 1 0) (ite (and (= W_4_5 2) (= P_4_5 0)) 1 0)) 1))
(assert (= (+ (ite (and (= W_0_1 2) (= P_0_1 1)) 1 0) (ite (and (= W_0_2 2) (= P_0_2 1)) 1 0) (ite (and (= W_0_3 2) (= P_0_3 1)) 1 0) (ite (and (= W_0_4 2) (= P_0_4 1)) 1 0) (ite (and (= W_0_5 2) (= P_0_5 1)) 1 0) (ite (and (= W_1_2 2) (= P_1_2 1)) 1 0) (ite (and (= W_1_3 2) (= P_1_3 1)) 1 0) (ite (and (= W_1_4 2) (= P_1_4 1)) 1 0) (ite (and (= W_1_5 2) (= P_1_5 1)) 1 0) (ite (and (= W_2_3 2) (= P_2_3 1)) 1 0) (ite (and (= W_2_4 2) (= P_2_4 1)) 1 0) (ite (and (= W_2_5 2) (= P_2_5 1)) 1 0) (ite (and (= W_3_4 2) (= P_3_4 1)) 1 0) (ite (and (= W_3_5 2) (= P_3_5 1)) 1 0) (ite (and (= W_4_5 2) (= P_4_5 1)) 1 0)) 1))
(assert (= (+ (ite (and (= W_0_1 2) (= P_0_1 2)) 1 0) (ite (and (= W_0_2 2) (= P_0_2 2)) 1 0) (ite (and (= W_0_3 2) (= P_0_3 2)) 1 0) (ite (and (= W_0_4 2) (= P_0_4 2)) 1 0) (ite (and (= W_0_5 2) (= P_0_5 2)) 1 0) (ite (and (= W_1_2 2) (= P_1_2 2)) 1 0) (ite (and (= W_1_3 2) (= P_1_3 2)) 1 0) (ite (and (= W_1_4 2) (= P_1_4 2)) 1 0) (ite (and (= W_1_5 2) (= P_1_5 2)) 1 0) (ite (and (= W_2_3 2) (= P_2_3 2)) 1 0) (ite (and (= W_2_4 2) (= P_2_4 2)) 1 0) (ite (and (= W_2_5 2) (= P_2_5 2)) 1 0) (ite (and (= W_3_4 2) (= P_3_4 2)) 1 0) (ite (and (= W_3_5 2) (= P_3_5 2)) 1 0) (ite (and (= W_4_5 2) (= P_4_5 2)) 1 0)) 1))
(assert (= (+ (ite (and (= W_0_1 3) (= P_0_1 0)) 1 0) (ite (and (= W_0_2 3) (= P_0_2 0)) 1 0) (ite (and (= W_0_3 3) (= P_0_3 0)) 1 0) (ite (and (= W_0_4 3) (= P_0_4 0)) 1 0) (ite (and (= W_0_5 3) (= P_0_5 0)) 1 0) (ite (and (= W_1_2 3) (= P_1_2 0)) 1 0) (ite (and (= W_1_3 3) (= P_1_3 0)) 1 0) (ite (and (= W_1_4 3) (= P_1_4 0)) 1 0) (ite (and (= W_1_5 3) (= P_1_5 0)) 1 0) (ite (and (= W_2_3 3) (= P_2_3 0)) 1 0) (ite (and (= W_2_4 3) (= P_2_4 0)) 1 0) (ite (and (= W_2_5 3) (= P_2_5 0)) 1 0) (ite (and (= W_3_4 3) (= P_3_4 0)) 1 0) (ite (and (= W_3_5 3) (= P_3_5 0)) 1 0) (ite (and (= W_4_5 3) (= P_4_5 0)) 1 0)) 1))
(assert (= (+ (ite (and (= W_0_1 3) (= P_0_1 1)) 1 0) (ite (and (= W_0_2 3) (= P_0_2 1)) 1 0) (ite (and (= W_0_3 3) (= P_0_3 1)) 1 0) (ite (and (= W_0_4 3) (= P_0_4 1)) 1 0) (ite (and (= W_0_5 3) (= P_0_5 1)) 1 0) (ite (and (= W_1_2 3) (= P_1_2 1)) 1 0) (ite (and (= W_1_3 3) (= P_1_3 1)) 1 0) (ite (and (= W_1_4 3) (= P_1_4 1)) 1 0) (ite (and (= W_1_5 3) (= P_1_5 1)) 1 0) (ite (and (= W_2_3 3) (= P_2_3 1)) 1 0) (ite (and (= W_2_4 3) (= P_2_4 1)) 1 0) (ite (and (= W_2_5 3) (= P_2_5 1)) 1 0) (ite (and (= W_3_4 3) (= P_3_4 1)) 1 0) (ite (and (= W_3_5 3) (= P_3_5 1)) 1 0) (ite (and (= W_4_5 3) (= P_4_5 1)) 1 0)) 1))
(assert (= (+ (ite (and (= W_0_1 3) (= P_0_1 2)) 1 0) (ite (and (= W_0_2 3) (= P_0_2 2)) 1 0) (ite (and (= W_0_3 3) (= P_0_3 2)) 1 0) (ite (and (= W_0_4 3) (= P_0_4 2)) 1 0) (ite (and (= W_0_5 3) (= P_0_5 2)) 1 0) (ite (and (= W_1_2 3) (= P_1_2 2)) 1 0) (ite (and (= W_1_3 3) (= P_1_3 2)) 1 0) (ite (and (= W_1_4 3) (= P_1_4 2)) 1 0) (ite (and (= W_1_5 3) (= P_1_5 2)) 1 0) (ite (and (= W_2_3 3) (= P_2_3 2)) 1 0) (ite (and (= W_2_4 3) (= P_2_4 2)) 1 0) (ite (and (= W_2_5 3) (= P_2_5 2)) 1 0) (ite (and (= W_3_4 3) (= P_3_4 2)) 1 0) (ite (and (= W_3_5 3) (= P_3_5 2)) 1 0) (ite (and (= W_4_5 3) (= P_4_5 2)) 1 0)) 1))
(assert (= (+ (ite (and (= W_0_1 4) (= P_0_1 0)) 1 0) (ite (and (= W_0_2 4) (= P_0_2 0)) 1 0) (ite (and (= W_0_3 4) (= P_0_3 0)) 1 0) (ite (and (= W_0_4 4) (= P_0_4 0)) 1 0) (ite (and (= W_0_5 4) (= P_0_5 0)) 1 0) (ite (and (= W_1_2 4) (= P_1_2 0)) 1 0) (ite (and (= W_1_3 4) (= P_1_3 0)) 1 0) (ite (and (= W_1_4 4) (= P_1_4 0)) 1 0) (ite (and (= W_1_5 4) (= P_1_5 0)) 1 0) (ite (and (= W_2_3 4) (= P_2_3 0)) 1 0) (ite (and (= W_2_4 4) (= P_2_4 0)) 1 0) (ite (and (= W_2_5 4) (= P_2_5 0)) 1 0) (ite (and (= W_3_4 4) (= P_3_4 0)) 1 0) (ite (and (= W_3_5 4) (= P_3_5 0)) 1 0) (ite (and (= W_4_5 4) (= P_4_5 0)) 1 0)) 1))
(assert (= (+ (ite (and (= W_0_1 4) (= P_0_1 1)) 1 0) (ite (and (= W_0_2 4) (= P_0_2 1)) 1 0) (ite (and (= W_0_3 4) (= P_0_3 1)) 1 0) (ite (and (= W_0_4 4) (= P_0_4 1)) 1 0) (ite (and (= W_0_5 4) (= P_0_5 1)) 1 0) (ite (and (= W_1_2 4) (= P_1_2 1)) 1 0) (ite (and (= W_1_3 4) (= P_1_3 1)) 1 0) (ite (and (= W_1_4 4) (= P_1_4 1)) 1 0) (ite (and (= W_1_5 4) (= P_1_5 1)) 1 0) (ite (and (= W_2_3 4) (= P_2_3 1)) 1 0) (ite (and (= W_2_4 4) (= P_2_4 1)) 1 0) (ite (and (= W_2_5 4) (= P_2_5 1)) 1 0) (ite (and (= W_3_4 4) (= P_3_4 1)) 1 0) (ite (and (= W_3_5 4) (= P_3_5 1)) 1 0) (ite (and (= W_4_5 4) (= P_4_5 1)) 1 0)) 1))
(assert (= (+ (ite (and (= W_0_1 4) (= P_0_1 2)) 1 0) (ite (and (= W_0_2 4) (= P_0_2 2)) 1 0) (ite (and (= W_0_3 4) (= P_0_3 2)) 1 0) (ite (and (= W_0_4 4) (= P_0_4 2)) 1 0) (ite (and (= W_0_5 4) (= P_0_5 2)) 1 0) (ite (and (= W_1_2 4) (= P_1_2 2)) 1 0) (ite (and (= W_1_3 4) (= P_1_3 2)) 1 0) (ite (and (= W_1_4 4) (= P_1_4 2)) 1 0) (ite (and (= W_1_5 4) (= P_1_5 2)) 1 0) (ite (and (= W_2_3 4) (= P_2_3 2)) 1 0) (ite (and (= W_2_4 4) (= P_2_4 2)) 1 0) (ite (and (= W_2_5 4) (= P_2_5 2)) 1 0) (ite (and (= W_3_4 4) (= P_3_4 2)) 1 0) (ite (and (= W_3_5 4) (= P_3_5 2)) 1 0) (ite (and (= W_4_5 4) (= P_4_5 2)) 1 0)) 1))
(assert (<= (+ (ite (= P_0_1 0) 1 0) (ite (= P_0_2 0) 1 0) (ite (= P_0_3 0) 1 0) (ite (= P_0_4 0) 1 0) (ite (= P_0_5 0) 1 0)) 2))
(assert (<= (+ (ite (= P_0_1 1) 1 0) (ite (= P_0_2 1) 1 0) (ite (= P_0_3 1) 1 0) (ite (= P_0_4 1) 1 0) (ite (= P_0_5 1) 1 0)) 2))
(assert (<= (+ (ite (= P_0_1 2) 1 0) (ite (= P_0_2 2) 1 0) (ite (= P_0_3 2) 1 0) (ite (= P_0_4 2) 1 0) (ite (= P_0_5 2) 1 0)) 2))
(assert (<= (+ (ite (= P_0_1 0) 1 0) (ite (= P_1_2 0) 1 0) (ite (= P_1_3 0) 1 0) (ite (= P_1_4 0) 1 0) (ite (= P_1_5 0) 1 0)) 2))
(assert (<= (+ (ite (= P_0_1 1) 1 0) (ite (= P_1_2 1) 1 0) (ite (= P_1_3 1) 1 0) (ite (= P_1_4 1) 1 0) (ite (= P_1_5 1) 1 0)) 2))
(assert (<= (+ (ite (= P_0_1 2) 1 0) (ite (= P_1_2 2) 1 0) (ite (= P_1_3 2) 1 0) (ite (= P_1_4 2) 1 0) (ite (= P_1_5 2) 1 0)) 2))
(assert (<= (+ (ite (= P_0_2 0) 1 0) (ite (= P_1_2 0) 1 0) (ite (= P_2_3 0) 1 0) (ite (= P_2_4 0) 1 0) (ite (= P_2_5 0) 1 0)) 2))
(assert (<= (+ (ite (= P_0_2 1) 1 0) (ite (= P_1_2 1) 1 0) (ite (= P_2_3 1) 1 0) (ite (= P_2_4 1) 1 0) (ite (= P_2_5 1) 1 0)) 2))
(assert (<= (+ (ite (= P_0_2 2) 1 0) (ite (= P_1_2 2) 1 0) (ite (= P_2_3 2) 1 0) (ite (= P_2_4 2) 1 0) (ite (= P_2_5 2) 1 0)) 2))
(assert (<= (+ (ite (= P_0_3 0) 1 0) (ite (= P_1_3 0) 1 0) (ite (= P_2_3 0) 1 0) (ite (= P_3_4 0) 1 0) (ite (= P_3_5 0) 1 0)) 2))
(assert (<= (+ (ite (= P_0_3 1) 1 0) (ite (= P_1_3 1) 1 0) (ite (= P_2_3 1) 1 0) (ite (= P_3_4 1) 1 0) (ite (= P_3_5 1) 1 0)) 2))
(assert (<= (+ (ite (= P_0_3 2) 1 0) (ite (= P_1_3 2) 1 0) (ite (= P_2_3 2) 1 0) (ite (= P_3_4 2) 1 0) (ite (= P_3_5 2) 1 0)) 2))
(assert (<= (+ (ite (= P_0_4 0) 1 0) (ite (= P_1_4 0) 1 0) (ite (= P_2_4 0) 1 0) (ite (= P_3_4 0) 1 0) (ite (= P_4_5 0) 1 0)) 2))
(assert (<= (+ (ite (= P_0_4 1) 1 0) (ite (= P_1_4 1) 1 0) (ite (= P_2_4 1) 1 0) (ite (= P_3_4 1) 1 0) (ite (= P_4_5 1) 1 0)) 2))
(assert (<= (+ (ite (= P_0_4 2) 1 0) (ite (= P_1_4 2) 1 0) (ite (= P_2_4 2) 1 0) (ite (= P_3_4 2) 1 0) (ite (= P_4_5 2) 1 0)) 2))
(assert (<= (+ (ite (= P_0_5 0) 1 0) (ite (= P_1_5 0) 1 0) (ite (= P_2_5 0) 1 0) (ite (= P_3_5 0) 1 0) (ite (= P_4_5 0) 1 0)) 2))
(assert (<= (+ (ite (= P_0_5 1) 1 0) (ite (= P_1_5 1) 1 0) (ite (= P_2_5 1) 1 0) (ite (= P_3_5 1) 1 0) (ite (= P_4_5 1) 1 0)) 2))
(assert (<= (+ (ite (= P_0_5 2) 1 0) (ite (= P_1_5 2) 1 0) (ite (= P_2_5 2) 1 0) (ite (= P_3_5 2) 1 0) (ite (= P_4_5 2) 1 0)) 2))
(check-sat)
(get-model)